 &control
    calculation = 'vc-relax',
    prefix = 'CaH2_ambient'
    tprnfor = .TRUE
    tstress = .TRUE
 /
 &system
    ibrav =  4, 
    celldm(1) = 6.8695, 
    celldm(3) = 1.3104, 
    nat = 6, 
    ntyp = 2,
    ecutwfc = 80,
    ecutrho = 320,
 /
 &electrons
    mixing_mode = 'local-TF'
    mixing_beta = 0.3
    mixing_ndim = 16
 /
 &ions
    ion_dynamics = 'bfgs'
 /
 &cell
    cell_dynamics = 'bfgs'
    cell_factor = 2.0,
    press = 1000,
 /
ATOMIC_SPECIES
 H  1.007   H.pbe-sp-mt.ncpp
 Ca 40.078  Ca.pbe-sp-mt_ion2.ncpp

 ATOMIC_POSITIONS (crystal)
 Ca  1/3  2/3 1/4
 Ca  2/3  1/3 3/4
 H   1/3  2/3 3/4
 H   2/3  1/3 1/4
 H     0    0   0
 H     0    0 1/2
 K_POINTS (automatic)
  6 6 6 1 1 1
