 &control
    calculation = 'vc-relax',
    prefix = 'iceX_ambient'
    tprnfor = .TRUE
    tstress = .TRUE
 /
 &system
    ibrav =  1, 
    celldm(1) = 5.26,
    nat =  6, 
    ntyp = 2,
    ecutwfc = 80
    ecutrho = 320,
 /
 &electrons
    mixing_mode = 'local-TF'
    mixing_beta = 0.3
    mixing_ndim = 16
 /
 &ions
    ion_dynamics = 'bfgs'
 /
 &cell
    press = 0800,
    cell_dynamics = 'bfgs'
 /
ATOMIC_SPECIES
 H  1.007   H.pbe-sp-mt.ncpp
 O  16.000  O.pbe-sp-mt.ncpp
ATOMIC_POSITIONS (crystal)
 O 0.0000  0.0000  0.0000
 O 0.5000  0.5000  0.5000
 H 0.2500  0.2500  0.2500
 H 0.7500  0.7500  0.2500
 H 0.2500  0.7500  0.7500
 H 0.7500  0.2500  0.7500
K_POINTS (automatic)
  6 6 6 1 1 1
