 &control
    calculation = 'vc-relax',
    prefix = 'CaH2_18GPa-blyp-1000'
    tprnfor = .TRUE
    tstress = .TRUE
 /
 &system
    ibrav =  4, 
    celldm(1) = 7.152, 
    celldm(3) = 1.2504, 
    nat = 6, 
    ntyp = 2,
    ecutwfc = 120,
    ecutrho = 480,
 /
 &electrons
    mixing_mode = 'local-TF'
    mixing_beta = 0.3
    mixing_ndim = 16
 /
 &ions
    ion_dynamics = 'bfgs'
 /
 &cell
    cell_dynamics = 'bfgs'
    cell_factor = 2.0,
    press = 1000,
 /
ATOMIC_SPECIES
 H  1.007   H.blyp-vbc.UPF
 Ca 40.078  Ca.blyp-sp-hgh.UPF

 ATOMIC_POSITIONS (crystal)
 Ca  1/3  2/3 1/4
 Ca  2/3  1/3 3/4
 H   1/3  2/3 3/4
 H   2/3  1/3 1/4
 H     0    0   0
 H     0    0 1/2
 K_POINTS (automatic)
  6 6 6 1 1 1
